
Gurobi 9.1.2 (win64, Java) logging started Fri Nov 12 00:57:27 2021

Academic license - for non-commercial use only - expires 2022-10-30
Gurobi Optimizer version 9.1.2 build v9.1.2rc0 (win64)
Thread count: 6 physical cores, 12 logical processors, using up to 12 threads
Optimize a model with 50 rows, 400 columns and 800 nonzeros
Model fingerprint: 0xc974cb23
Variable types: 0 continuous, 400 integer (400 binary)
Coefficient statistics:
  Matrix range     [1e+00, 1e+03]
  Objective range  [4e+01, 9e+02]
  Bounds range     [1e+00, 1e+00]
  RHS range        [1e+00, 2e+03]
Found heuristic solution: objective 10162.000000
Presolve removed 0 rows and 110 columns
Presolve time: 0.00s
Presolved: 50 rows, 290 columns, 580 nonzeros
Variable types: 0 continuous, 290 integer (290 binary)
Presolved: 50 rows, 290 columns, 580 nonzeros


Root relaxation: objective 1.188714e+04, 113 iterations, 0.00 seconds

    Nodes    |    Current Node    |     Objective Bounds      |     Work
 Expl Unexpl |  Obj  Depth IntInf | Incumbent    BestBd   Gap | It/Node Time

     0     0 11887.1387    0   13 10162.0000 11887.1387  17.0%     -    0s
H    0     0                    11471.000000 11887.1387  3.63%     -    0s
H    0     0                    11549.000000 11887.1387  2.93%     -    0s
     0     0 11868.0000    0   22 11549.0000 11868.0000  2.76%     -    0s
     0     0 11868.0000    0   22 11549.0000 11868.0000  2.76%     -    0s
     0     0 11868.0000    0   22 11549.0000 11868.0000  2.76%     -    0s
     0     0 11868.0000    0   17 11549.0000 11868.0000  2.76%     -    0s
H    0     0                    11607.000000 11868.0000  2.25%     -    0s
     0     2 11868.0000    0   12 11607.0000 11868.0000  2.25%     -    0s
H    9    14                    11610.000000 11868.0000  2.22%  31.7    0s
H   31    44                    11638.000000 11868.0000  1.98%  36.0    0s
H   35    44                    11724.000008 11868.0000  1.23%  34.8    0s
H 1782  1214                    11781.000000 11868.0000  0.74%  12.9    2s
  4485  2146 11868.0000   21   40 11781.0000 11868.0000  0.74%  18.2    5s
H 4714  1694                    11830.000000 11868.0000  0.32%  18.6    5s
 13679  4891 11863.0085   31   47 11830.0000 11868.0000  0.32%  32.7   10s
 18625  5901 11868.0000   31   30 11830.0000 11868.0000  0.32%  35.3   15s
 22178  5907 infeasible   42      11830.0000 11868.0000  0.32%  39.5   20s
 26039  4990 11862.2349   31   51 11830.0000 11865.9586  0.30%  47.9   25s

Cutting planes:
  Gomory: 28
  Cover: 430
  Clique: 8
  MIR: 116
  StrongCG: 107
  Flow cover: 55
  Inf proof: 3
  Zero half: 14
  RLT: 1

Explored 36212 nodes (1701108 simplex iterations) in 28.40 seconds
Thread count was 12 (of 12 available processors)

Solution count 9: 11830 11781 11724 ... 10162

Optimal solution found (tolerance 1.00e-12)
Best objective 1.183000000000e+04, best bound 1.183000000000e+04, gap 0.0000%
